ingredients = {null, noodles, mushrooms, peppers, broccoli, peas, soySauce, flour, cheese, tomatoes, pepperoni, chicken, cream};
notIngredient = null;

nothing = none;

% cost in pennies per 100g or 100ml
ingredientsBuyCost = [0, 40, 30, 30, 10, 30, 100, 10, 60, 20, 70, 90, 40];
ingredientsStorageCost = [0, 0, 0, 2, 2, 2, 0, 0, 2, 0, 2, 2, 0]; % frozen or tinned/dry

meals = {vegChowMein, pepperoniPizza, chickenNoodles, mushroomSoup, kievs};

maxIngredients = 5;
mealIngredients = 
     [|noodles, mushrooms, peppers, broccoli, soySauce
     |flour, cheese, pepperoni, tomatoes, mushrooms
     |noodles, chicken, peas, soySauce, null
     |mushrooms, cream, null, null, null
     |chicken, flour, peas, broccoli, null|];
     
maxContains = 2;     
mealContains = [|gluten, none|
                 meat, milk|
                 meat, gluten|
                 milk, none|
                 meat, none|];

% amount of ingredient in meal x 100g
mealIngredientsAmounts = 
    [|2, 2, 1, 1, 0|
      2, 2, 2, 2, 1|
      2, 1, 2, 0, 0|
      1, 1, 1, 0, 0|
      2, 1, 1, 1, 0|];
          
numPeople = 10;
     
% contains = {none, meat, milk, gluten, egg, sugars};
numRefusals = [4, 3, 1, 1, 2, 0]; % num people who do not eat categories. None means they eat everything.
